c THIS FORMULA IS GENERATED BY CNF
c 
c atomics
c X_PI <= 48.12_2_p:1
c X_PI <= 48.12_2_s:2
c X_PI <= 48.12_3_s:3
c X_PI <= 42.09_1_p:4
c X_PI <= 54.92_3_n:5
c X_PI <= 42.09_4_n:6
c X_PI <= 54.92_2_n:7
c X_PI <= 42.09_2_n:8
c X_PI <= 54.92_4_p:9
c X_PI <= 54.92_1_p:10
c X_PI <= 42.09_1_s:11
c X_PI <= 42.09_4_s:12
c X_PI <= 48.12_1_p:13
c C_3_1:14
c X_PI <= 48.12_2_n:15
c X_PI <= 54.92_3_p:16
c X_PI <= 42.09_4_p:17
c X_PI <= 48.12_1_n:18
c X_PI <= 48.12_3_n:19
c C_2_1:20
c X_PI <= 48.12_4_n:21
c X_PI <= 42.09_2_p:22
c X_PI <= 48.12_4_p:23
c X_PI <= 54.92_2_s:24
c X_PI <= 48.12_1_s:25
c C_1_1:26
c X_PI <= 54.92_3_s:27
c X_PI <= 42.09_2_s:28
c X_PI <= 54.92_2_p:29
c X_PI <= 54.92_1_s:30
c X_PI <= 42.09_3_p:31
c X_PI <= 54.92_4_s:32
c X_PI <= 42.09_1_n:33
c X_PI <= 48.12_4_s:34
c X_PI <= 48.12_3_p:35
c X_PI <= 42.09_3_s:36
c X_PI <= 42.09_3_n:37
c C_4_1:38
c X_PI <= 54.92_1_n:39
c X_PI <= 54.92_4_n:40
c end atomics
p cnf 40 344
4 -4 -4 0
4 -4 -33 0
4 -4 11 0
4 33 -4 0
4 33 -33 0
4 33 11 0
4 -11 -4 0
4 -11 -33 0
4 -11 11 0
-33 -4 -4 0
-33 -4 -33 0
-33 -4 11 0
-33 33 -4 0
-33 33 -33 0
-33 33 11 0
-33 -11 -4 0
-33 -11 -33 0
-33 -11 11 0
-11 -4 -4 0
-11 -4 -33 0
-11 -4 11 0
-11 33 -4 0
-11 33 -33 0
-11 33 11 0
-11 -11 -4 0
-11 -11 -33 0
-11 -11 11 0
13 -13 -13 0
13 -13 -18 0
13 -13 25 0
13 18 -13 0
13 18 -18 0
13 18 25 0
13 -25 -13 0
13 -25 -18 0
13 -25 25 0
-18 -13 -13 0
-18 -13 -18 0
-18 -13 25 0
-18 18 -13 0
-18 18 -18 0
-18 18 25 0
-18 -25 -13 0
-18 -25 -18 0
-18 -25 25 0
-25 -13 -13 0
-25 -13 -18 0
-25 -13 25 0
-25 18 -13 0
-25 18 -18 0
-25 18 25 0
-25 -25 -13 0
-25 -25 -18 0
-25 -25 25 0
10 -10 -10 0
10 -10 -39 0
10 -10 30 0
10 39 -10 0
10 39 -39 0
10 39 30 0
10 -30 -10 0
10 -30 -39 0
10 -30 30 0
-39 -10 -10 0
-39 -10 -39 0
-39 -10 30 0
-39 39 -10 0
-39 39 -39 0
-39 39 30 0
-39 -30 -10 0
-39 -30 -39 0
-39 -30 30 0
-30 -10 -10 0
-30 -10 -39 0
-30 -10 30 0
-30 39 -10 0
-30 39 -39 0
-30 39 30 0
-30 -30 -10 0
-30 -30 -39 0
-30 -30 30 0
22 -22 -22 0
22 -22 -8 0
22 -22 28 0
22 8 -22 0
22 8 -8 0
22 8 28 0
22 -28 -22 0
22 -28 -8 0
22 -28 28 0
-8 -22 -22 0
-8 -22 -8 0
-8 -22 28 0
-8 8 -22 0
-8 8 -8 0
-8 8 28 0
-8 -28 -22 0
-8 -28 -8 0
-8 -28 28 0
-28 -22 -22 0
-28 -22 -8 0
-28 -22 28 0
-28 8 -22 0
-28 8 -8 0
-28 8 28 0
-28 -28 -22 0
-28 -28 -8 0
-28 -28 28 0
1 -1 -1 0
1 -1 -15 0
1 -1 2 0
1 15 -1 0
1 15 -15 0
1 15 2 0
1 -2 -1 0
1 -2 -15 0
1 -2 2 0
-15 -1 -1 0
-15 -1 -15 0
-15 -1 2 0
-15 15 -1 0
-15 15 -15 0
-15 15 2 0
-15 -2 -1 0
-15 -2 -15 0
-15 -2 2 0
-2 -1 -1 0
-2 -1 -15 0
-2 -1 2 0
-2 15 -1 0
-2 15 -15 0
-2 15 2 0
-2 -2 -1 0
-2 -2 -15 0
-2 -2 2 0
29 -29 -29 0
29 -29 -7 0
29 -29 24 0
29 7 -29 0
29 7 -7 0
29 7 24 0
29 -24 -29 0
29 -24 -7 0
29 -24 24 0
-7 -29 -29 0
-7 -29 -7 0
-7 -29 24 0
-7 7 -29 0
-7 7 -7 0
-7 7 24 0
-7 -24 -29 0
-7 -24 -7 0
-7 -24 24 0
-24 -29 -29 0
-24 -29 -7 0
-24 -29 24 0
-24 7 -29 0
-24 7 -7 0
-24 7 24 0
-24 -24 -29 0
-24 -24 -7 0
-24 -24 24 0
31 -31 -31 0
31 -31 -37 0
31 -31 36 0
31 37 -31 0
31 37 -37 0
31 37 36 0
31 -36 -31 0
31 -36 -37 0
31 -36 36 0
-37 -31 -31 0
-37 -31 -37 0
-37 -31 36 0
-37 37 -31 0
-37 37 -37 0
-37 37 36 0
-37 -36 -31 0
-37 -36 -37 0
-37 -36 36 0
-36 -31 -31 0
-36 -31 -37 0
-36 -31 36 0
-36 37 -31 0
-36 37 -37 0
-36 37 36 0
-36 -36 -31 0
-36 -36 -37 0
-36 -36 36 0
35 -35 -35 0
35 -35 -19 0
35 -35 3 0
35 19 -35 0
35 19 -19 0
35 19 3 0
35 -3 -35 0
35 -3 -19 0
35 -3 3 0
-19 -35 -35 0
-19 -35 -19 0
-19 -35 3 0
-19 19 -35 0
-19 19 -19 0
-19 19 3 0
-19 -3 -35 0
-19 -3 -19 0
-19 -3 3 0
-3 -35 -35 0
-3 -35 -19 0
-3 -35 3 0
-3 19 -35 0
-3 19 -19 0
-3 19 3 0
-3 -3 -35 0
-3 -3 -19 0
-3 -3 3 0
16 -16 -16 0
16 -16 -5 0
16 -16 27 0
16 5 -16 0
16 5 -5 0
16 5 27 0
16 -27 -16 0
16 -27 -5 0
16 -27 27 0
-5 -16 -16 0
-5 -16 -5 0
-5 -16 27 0
-5 5 -16 0
-5 5 -5 0
-5 5 27 0
-5 -27 -16 0
-5 -27 -5 0
-5 -27 27 0
-27 -16 -16 0
-27 -16 -5 0
-27 -16 27 0
-27 5 -16 0
-27 5 -5 0
-27 5 27 0
-27 -27 -16 0
-27 -27 -5 0
-27 -27 27 0
17 -17 -17 0
17 -17 -6 0
17 -17 12 0
17 6 -17 0
17 6 -6 0
17 6 12 0
17 -12 -17 0
17 -12 -6 0
17 -12 12 0
-6 -17 -17 0
-6 -17 -6 0
-6 -17 12 0
-6 6 -17 0
-6 6 -6 0
-6 6 12 0
-6 -12 -17 0
-6 -12 -6 0
-6 -12 12 0
-12 -17 -17 0
-12 -17 -6 0
-12 -17 12 0
-12 6 -17 0
-12 6 -6 0
-12 6 12 0
-12 -12 -17 0
-12 -12 -6 0
-12 -12 12 0
23 -23 -23 0
23 -23 -21 0
23 -23 34 0
23 21 -23 0
23 21 -21 0
23 21 34 0
23 -34 -23 0
23 -34 -21 0
23 -34 34 0
-21 -23 -23 0
-21 -23 -21 0
-21 -23 34 0
-21 21 -23 0
-21 21 -21 0
-21 21 34 0
-21 -34 -23 0
-21 -34 -21 0
-21 -34 34 0
-34 -23 -23 0
-34 -23 -21 0
-34 -23 34 0
-34 21 -23 0
-34 21 -21 0
-34 21 34 0
-34 -34 -23 0
-34 -34 -21 0
-34 -34 34 0
9 -9 -9 0
9 -9 -40 0
9 -9 32 0
9 40 -9 0
9 40 -40 0
9 40 32 0
9 -32 -9 0
9 -32 -40 0
9 -32 32 0
-40 -9 -9 0
-40 -9 -40 0
-40 -9 32 0
-40 40 -9 0
-40 40 -40 0
-40 40 32 0
-40 -32 -9 0
-40 -32 -40 0
-40 -32 32 0
-32 -9 -9 0
-32 -9 -40 0
-32 -9 32 0
-32 40 -9 0
-32 40 -40 0
-32 40 32 0
-32 -32 -9 0
-32 -32 -40 0
-32 -32 32 0
-11 -25 -30 0
-28 -2 -24 0
-36 -3 -27 0
-12 -34 -32 0
33 18 39 0
8 15 7 0
37 19 5 0
6 21 40 0
-4 -26 0
-13 -26 0
-10 -26 0
-22 -20 0
-1 -20 0
-29 -20 0
-31 -14 0
-35 -14 0
-16 -14 0
-17 -38 0
-23 -38 0
-9 -38 0
26 20 14 38 0
